(set-info :Origin "This instance was generated by: BanditFuzz-- an RL fuzzer for SMT solvers" )
(set-info :Author "Joe Scott, Fed Mora, Vijay Ganesh" )
(set-info :Contact "Joe Scott, joseph.scott@uwaterloo.ca")
(set-logic QF_BV)
(declare-const bool_0 Bool)
(declare-const bool_1 Bool)
(declare-const bool_2 Bool)
(declare-const bool_3 Bool)
(declare-const bool_4 Bool)
(declare-const bv_0 (_ BitVec 32))
(declare-const bv_1 (_ BitVec 32))
(declare-const bv_2 (_ BitVec 32))
(declare-const bv_3 (_ BitVec 32))
(declare-const bv_4 (_ BitVec 32))
(assert (and (bvsle (bvor #x7c407319  #x7284c23d ) (bvsdiv #x6718d946  bv_1)) (or (bvuge #xc3afccf5  bv_1) (bvsge bv_2 bv_4))))
(assert (not (bvsle (bvurem #x8801bd7b  #x83becdf7 ) (bvlshr #x714e1c1b  #xfaf0f356 ))))
(assert (bvuge (bvsrem (bvsmod #xdad59667  bv_4) (bvshl bv_2 #x0982eddc )) (bvmul (bvnor bv_0 #xb67c2248 ) (bvshl bv_1 #x52fb9e2a ))))
(assert (and (or (bvult #xc7518fff  bv_4) (or bool_0 bool_0)) (bvsge (bvsrem bv_0 #xb20d08e2 ) (bvadd #xe6cea37d  #xa0202eed ))))
(assert (bvule (bvor (bvashr #x45038a7f  bv_3) (bvmul #xdf294f0f  #x70a9ffaf )) (bvudiv (bvsdiv bv_3 bv_0) (bvmul #xa89ff6ba  #xe5369d92 ))))
(check-sat)
(exit)
